MARKOV
385
2 2 2 2 2 2 2 2 2 2 2 2 2 2 2 2 2 2 2 2 2 2 2 2 2 2 2 2 2 2 2 2 2 2 2 2 2 2 2 2 2 2 2 2 2 2 2 2 2 2 2 2 2 2 2 2 2 2 2 2 2 2 2 2 2 2 2 2 2 2 2 2 2 2 2 2 2 2 2 2 2 2 2 2 2 2 2 2 2 2 2 2 2 2 2 2 2 2 2 2 2 2 3 2 2 2 2 2 2 2 2 3 2 2 2 2 3 2 2 2 2 2 2 2 2 3 2 2 2 2 3 2 2 2 2 2 2 2 2 2 2 2 2 2 2 2 2 2 2 2 2 2 2 2 2 2 2 2 2 2 2 2 2 2 2 3 2 2 2 2 2 2 2 2 3 2 2 2 2 3 2 2 2 2 2 2 2 2 3 2 2 2 2 3 2 2 2 2 2 2 2 2 2 2 2 2 2 2 2 2 2 2 2 2 2 2 2 2 2 2 2 2 2 2 2 2 2 2 3 2 2 2 2 2 2 2 2 3 2 2 2 2 3 2 2 2 2 2 2 2 2 2 2 2 2 3 2 2 2 2 2 2 2 2 2 2 2 2 2 2 2 2 2 2 2 2 2 2 2 2 2 2 2 2 2 2 2 2 2 2 3 2 2 2 2 2 2 2 2 3 2 2 2 2 3 2 2 2 2 2 2 2 2 2 2 2 2 3 2 2 2 2 2 2 2 2 2 2 2 2 2 2 2 2 2 2 2 2 2 2 2 2 2 2 2 2 2 2 2 2 2 2 3 2 2 2 2 2 2 2 2 3 2 2 2 2 3 2 2 2 2 2 2 2 2 3 2 2 2 2 3 2 2 2 2 
385
1 0 
1 1 
1 2 
1 3 
1 4 
1 5 
1 6 
1 7 
1 8 
1 9 
3 9 8 10 
1 11 
1 12 
3 12 11 13 
1 14 
1 15 
3 15 14 16 
4 18 2 3 17 
4 20 0 1 19 
1 18 
1 20 
3 19 17 21 
4 23 6 7 22 
4 25 4 5 24 
1 23 
1 25 
3 24 22 26 
4 28 6 7 27 
4 30 4 5 29 
1 28 
1 30 
3 29 27 31 
4 33 6 7 32 
4 35 4 5 34 
1 33 
1 35 
3 34 32 36 
4 38 11 12 37 
4 40 8 9 39 
1 38 
1 40 
3 39 37 41 
4 43 11 12 42 
4 45 8 9 44 
1 43 
1 45 
3 44 42 46 
4 48 11 12 47 
4 50 14 15 49 
1 48 
1 50 
3 49 47 51 
4 53 22 24 52 
4 55 17 19 54 
1 53 
1 55 
3 54 52 56 
4 58 22 24 57 
4 60 17 19 59 
1 58 
1 60 
3 59 57 61 
4 63 32 34 62 
4 65 47 49 64 
1 63 
1 65 
3 64 62 66 
4 68 32 34 67 
4 70 47 49 69 
1 68 
1 70 
3 69 67 71 
1 72 
1 73 
1 74 
1 75 
1 76 
1 77 
1 78 
1 79 
1 80 
1 81 
1 82 
1 83 
1 84 
1 85 
4 87 74 75 86 
4 89 72 73 88 
2 18 87 
2 20 89 
4 91 78 79 90 
4 93 76 77 92 
2 23 91 
2 25 93 
4 95 78 79 94 
4 97 76 77 96 
2 28 95 
2 30 97 
4 99 78 79 98 
4 101 76 77 100 
2 33 99 
2 35 101 
3 100 98 102 
4 104 82 83 103 
4 106 80 81 105 
2 38 104 
2 40 106 
4 108 82 83 107 
4 110 80 81 109 
2 43 108 
2 45 110 
3 109 107 111 
4 113 82 83 112 
4 115 84 85 114 
2 48 113 
2 50 115 
3 114 112 116 
4 118 90 92 117 
4 120 86 88 119 
2 53 118 
2 55 120 
4 122 90 92 121 
4 124 86 88 123 
2 58 122 
2 60 124 
3 123 121 125 
4 127 98 100 126 
4 129 112 114 128 
2 63 127 
2 65 129 
3 128 126 130 
4 132 98 100 131 
4 134 112 114 133 
2 68 132 
2 70 134 
1 135 
1 136 
1 137 
1 138 
1 139 
1 140 
1 141 
1 142 
1 143 
1 144 
1 145 
1 146 
1 147 
1 148 
4 150 137 138 149 
4 152 135 136 151 
2 87 150 
2 89 152 
4 154 141 142 153 
4 156 139 140 155 
2 91 154 
2 93 156 
4 158 141 142 157 
4 160 139 140 159 
2 95 158 
2 97 160 
4 162 141 142 161 
4 164 139 140 163 
2 99 162 
2 101 164 
3 163 161 165 
4 167 145 146 166 
4 169 143 144 168 
2 104 167 
2 106 169 
4 171 145 146 170 
4 173 143 144 172 
2 108 171 
2 110 173 
3 172 170 174 
4 176 145 146 175 
4 178 147 148 177 
2 113 176 
2 115 178 
3 177 175 179 
4 181 153 155 180 
4 183 149 151 182 
2 118 181 
2 120 183 
4 185 153 155 184 
4 187 149 151 186 
2 122 185 
2 124 187 
3 186 184 188 
4 190 161 163 189 
4 192 175 177 191 
2 127 190 
2 129 192 
3 191 189 193 
4 195 161 163 194 
4 197 175 177 196 
2 132 195 
2 134 197 
1 198 
1 199 
1 200 
1 201 
1 202 
1 203 
1 204 
1 205 
1 206 
1 207 
1 208 
1 209 
1 210 
1 211 
4 213 200 201 212 
4 215 198 199 214 
2 150 213 
2 152 215 
4 217 204 205 216 
4 219 202 203 218 
2 154 217 
2 156 219 
4 221 204 205 220 
4 223 202 203 222 
2 158 221 
2 160 223 
4 225 204 205 224 
4 227 202 203 226 
2 162 225 
2 164 227 
3 226 224 228 
4 230 208 209 229 
4 232 206 207 231 
2 167 230 
2 169 232 
4 234 208 209 233 
4 236 206 207 235 
2 171 234 
2 173 236 
3 235 233 237 
4 239 208 209 238 
4 241 210 211 240 
2 176 239 
2 178 241 
3 240 238 242 
4 244 216 218 243 
4 246 212 214 245 
2 181 244 
2 183 246 
4 248 216 218 247 
4 250 212 214 249 
2 185 248 
2 187 250 
4 252 224 226 251 
4 254 238 240 253 
2 190 252 
2 192 254 
3 253 251 255 
4 257 224 226 256 
4 259 238 240 258 
2 195 257 
2 197 259 
1 260 
1 261 
1 262 
1 263 
1 264 
1 265 
1 266 
1 267 
1 268 
1 269 
1 270 
1 271 
1 272 
1 273 
4 275 262 263 274 
4 277 260 261 276 
2 213 275 
2 215 277 
4 279 266 267 278 
4 281 264 265 280 
2 217 279 
2 219 281 
4 283 266 267 282 
4 285 264 265 284 
2 221 283 
2 223 285 
4 287 266 267 286 
4 289 264 265 288 
2 225 287 
2 227 289 
3 288 286 290 
4 292 270 271 291 
4 294 268 269 293 
2 230 292 
2 232 294 
4 296 270 271 295 
4 298 268 269 297 
2 234 296 
2 236 298 
3 297 295 299 
4 301 270 271 300 
4 303 272 273 302 
2 239 301 
2 241 303 
3 302 300 304 
4 306 278 280 305 
4 308 274 276 307 
2 244 306 
2 246 308 
4 310 278 280 309 
4 312 274 276 311 
2 248 310 
2 250 312 
4 314 286 288 313 
4 316 300 302 315 
2 252 314 
2 254 316 
3 315 313 317 
4 319 286 288 318 
4 321 300 302 320 
2 257 319 
2 259 321 
1 322 
1 323 
1 324 
1 325 
1 326 
1 327 
1 328 
1 329 
1 330 
1 331 
1 332 
1 333 
1 334 
1 335 
4 337 324 325 336 
4 339 322 323 338 
2 275 337 
2 277 339 
4 341 328 329 340 
4 343 326 327 342 
2 279 341 
2 281 343 
4 345 328 329 344 
4 347 326 327 346 
2 283 345 
2 285 347 
4 349 328 329 348 
4 351 326 327 350 
2 287 349 
2 289 351 
3 350 348 352 
4 354 332 333 353 
4 356 330 331 355 
2 292 354 
2 294 356 
4 358 332 333 357 
4 360 330 331 359 
2 296 358 
2 298 360 
3 359 357 361 
4 363 332 333 362 
4 365 334 335 364 
2 301 363 
2 303 365 
3 364 362 366 
4 368 340 342 367 
4 370 336 338 369 
2 306 368 
2 308 370 
4 372 340 342 371 
4 374 336 338 373 
2 310 372 
2 312 374 
3 373 371 375 
4 377 348 350 376 
4 379 362 364 378 
2 314 377 
2 316 379 
3 378 376 380 
4 382 348 350 381 
4 384 362 364 383 
2 319 382 
2 321 384 

2
0.99 0.01 
2
0.99 0.01 
2
0.99 0.01 
2
0.99 0.01 
2
0.99 0.01 
2
0.99 0.01 
2
0.99 0.01 
2
0.99 0.01 
2
0.99 0.01 
2
0.99 0.01 
8
1 0 0.5 0.5 0.5 0.5 0.1 0.9 
2
0.99 0.01 
2
0.99 0.01 
8
1 0 0.5 0.5 0.5 0.5 0.1 0.9 
2
0.99 0.01 
2
0.99 0.01 
8
1 0 0.5 0.5 0.5 0.5 0.1 0.9 
16
1 0 1 0 0 1 0 1 1 0 0 1 1 0 0 1 
16
1 0 1 0 0 1 0 1 1 0 0 1 1 0 0 1 
2
0.5 0.5 
2
0.5 0.5 
8
1 0 0.5 0.5 0.5 0.5 0.1 0.9 
16
1 0 1 0 0 1 0 1 1 0 0 1 1 0 0 1 
16
1 0 1 0 0 1 0 1 1 0 0 1 1 0 0 1 
2
0.5 0.5 
2
0.5 0.5 
8
1 0 0.5 0.5 0.5 0.5 0.1 0.9 
16
1 0 1 0 0 1 0 1 1 0 0 1 1 0 0 1 
16
1 0 1 0 0 1 0 1 1 0 0 1 1 0 0 1 
2
0.5 0.5 
2
0.5 0.5 
8
1 0 0.5 0.5 0.5 0.5 0.1 0.9 
16
1 0 1 0 0 1 0 1 1 0 0 1 1 0 0 1 
16
1 0 1 0 0 1 0 1 1 0 0 1 1 0 0 1 
2
0.5 0.5 
2
0.5 0.5 
8
1 0 0.5 0.5 0.5 0.5 0.1 0.9 
16
1 0 1 0 0 1 0 1 1 0 0 1 1 0 0 1 
16
1 0 1 0 0 1 0 1 1 0 0 1 1 0 0 1 
2
0.5 0.5 
2
0.5 0.5 
8
1 0 0.5 0.5 0.5 0.5 0.1 0.9 
16
1 0 1 0 0 1 0 1 1 0 0 1 1 0 0 1 
16
1 0 1 0 0 1 0 1 1 0 0 1 1 0 0 1 
2
0.5 0.5 
2
0.5 0.5 
8
1 0 0.5 0.5 0.5 0.5 0.1 0.9 
16
1 0 1 0 0 1 0 1 1 0 0 1 1 0 0 1 
16
1 0 1 0 0 1 0 1 1 0 0 1 1 0 0 1 
2
0.5 0.5 
2
0.5 0.5 
8
1 0 0.5 0.5 0.5 0.5 0.1 0.9 
16
1 0 1 0 0 1 0 1 1 0 0 1 1 0 0 1 
16
1 0 1 0 0 1 0 1 1 0 0 1 1 0 0 1 
2
0.5 0.5 
2
0.5 0.5 
8
1 0 0.5 0.5 0.5 0.5 0.1 0.9 
16
1 0 1 0 0 1 0 1 1 0 0 1 1 0 0 1 
16
1 0 1 0 0 1 0 1 1 0 0 1 1 0 0 1 
2
0.5 0.5 
2
0.5 0.5 
8
1 0 0.5 0.5 0.5 0.5 0.1 0.9 
16
1 0 1 0 0 1 0 1 1 0 0 1 1 0 0 1 
16
1 0 1 0 0 1 0 1 1 0 0 1 1 0 0 1 
2
0.5 0.5 
2
0.5 0.5 
8
1 0 0.5 0.5 0.5 0.5 0.1 0.9 
16
1 0 1 0 0 1 0 1 1 0 0 1 1 0 0 1 
16
1 0 1 0 0 1 0 1 1 0 0 1 1 0 0 1 
2
0.5 0.5 
2
0.5 0.5 
8
1 0 0.5 0.5 0.5 0.5 0.1 0.9 
2
0.869 0.131 
2
0.869 0.131 
2
0.869 0.131 
2
0.869 0.131 
2
0.869 0.131 
2
0.869 0.131 
2
0.869 0.131 
2
0.869 0.131 
2
0.869 0.131 
2
0.869 0.131 
2
0.869 0.131 
2
0.869 0.131 
2
0.869 0.131 
2
0.869 0.131 
16
1 0 1 0 0 1 0 1 1 0 0 1 1 0 0 1 
16
1 0 1 0 0 1 0 1 1 0 0 1 1 0 0 1 
4
1 0 0 1 
4
1 0 0 1 
16
1 0 1 0 0 1 0 1 1 0 0 1 1 0 0 1 
16
1 0 1 0 0 1 0 1 1 0 0 1 1 0 0 1 
4
1 0 0 1 
4
1 0 0 1 
16
1 0 1 0 0 1 0 1 1 0 0 1 1 0 0 1 
16
1 0 1 0 0 1 0 1 1 0 0 1 1 0 0 1 
4
1 0 0 1 
4
1 0 0 1 
16
1 0 1 0 0 1 0 1 1 0 0 1 1 0 0 1 
16
1 0 1 0 0 1 0 1 1 0 0 1 1 0 0 1 
4
1 0 0 1 
4
1 0 0 1 
12
1 0 0 0 1 0 0 1 0 0 0 1 
16
1 0 1 0 0 1 0 1 1 0 0 1 1 0 0 1 
16
1 0 1 0 0 1 0 1 1 0 0 1 1 0 0 1 
4
1 0 0 1 
4
1 0 0 1 
16
1 0 1 0 0 1 0 1 1 0 0 1 1 0 0 1 
16
1 0 1 0 0 1 0 1 1 0 0 1 1 0 0 1 
4
1 0 0 1 
4
1 0 0 1 
12
1 0 0 0 1 0 0 1 0 0 0 1 
16
1 0 1 0 0 1 0 1 1 0 0 1 1 0 0 1 
16
1 0 1 0 0 1 0 1 1 0 0 1 1 0 0 1 
4
1 0 0 1 
4
1 0 0 1 
12
1 0 0 0 1 0 0 1 0 0 0 1 
16
1 0 1 0 0 1 0 1 1 0 0 1 1 0 0 1 
16
1 0 1 0 0 1 0 1 1 0 0 1 1 0 0 1 
4
1 0 0 1 
4
1 0 0 1 
16
1 0 1 0 0 1 0 1 1 0 0 1 1 0 0 1 
16
1 0 1 0 0 1 0 1 1 0 0 1 1 0 0 1 
4
1 0 0 1 
4
1 0 0 1 
12
1 0 0 0 1 0 0 1 0 0 0 1 
16
1 0 1 0 0 1 0 1 1 0 0 1 1 0 0 1 
16
1 0 1 0 0 1 0 1 1 0 0 1 1 0 0 1 
4
1 0 0 1 
4
1 0 0 1 
12
1 0 0 0 1 0 0 1 0 0 0 1 
16
1 0 1 0 0 1 0 1 1 0 0 1 1 0 0 1 
16
1 0 1 0 0 1 0 1 1 0 0 1 1 0 0 1 
4
1 0 0 1 
4
1 0 0 1 
2
0.202 0.798 
2
0.202 0.798 
2
0.202 0.798 
2
0.202 0.798 
2
0.202 0.798 
2
0.202 0.798 
2
0.202 0.798 
2
0.202 0.798 
2
0.202 0.798 
2
0.202 0.798 
2
0.202 0.798 
2
0.202 0.798 
2
0.202 0.798 
2
0.202 0.798 
16
1 0 1 0 0 1 0 1 1 0 0 1 1 0 0 1 
16
1 0 1 0 0 1 0 1 1 0 0 1 1 0 0 1 
4
0.958562 0.041438 0.041438 0.958562 
4
0.958562 0.041438 0.041438 0.958562 
16
1 0 1 0 0 1 0 1 1 0 0 1 1 0 0 1 
16
1 0 1 0 0 1 0 1 1 0 0 1 1 0 0 1 
4
0.958562 0.041438 0.041438 0.958562 
4
0.958562 0.041438 0.041438 0.958562 
16
1 0 1 0 0 1 0 1 1 0 0 1 1 0 0 1 
16
1 0 1 0 0 1 0 1 1 0 0 1 1 0 0 1 
4
0.958562 0.041438 0.041438 0.958562 
4
0.958562 0.041438 0.041438 0.958562 
16
1 0 1 0 0 1 0 1 1 0 0 1 1 0 0 1 
16
1 0 1 0 0 1 0 1 1 0 0 1 1 0 0 1 
4
0.958562 0.041438 0.041438 0.958562 
4
0.958562 0.041438 0.041438 0.958562 
12
1 0 0 0 1 0 0 1 0 0 0 1 
16
1 0 1 0 0 1 0 1 1 0 0 1 1 0 0 1 
16
1 0 1 0 0 1 0 1 1 0 0 1 1 0 0 1 
4
0.958562 0.041438 0.041438 0.958562 
4
0.958562 0.041438 0.041438 0.958562 
16
1 0 1 0 0 1 0 1 1 0 0 1 1 0 0 1 
16
1 0 1 0 0 1 0 1 1 0 0 1 1 0 0 1 
4
0.958562 0.041438 0.041438 0.958562 
4
0.958562 0.041438 0.041438 0.958562 
12
1 0 0 0 1 0 0 1 0 0 0 1 
16
1 0 1 0 0 1 0 1 1 0 0 1 1 0 0 1 
16
1 0 1 0 0 1 0 1 1 0 0 1 1 0 0 1 
4
0.958562 0.041438 0.041438 0.958562 
4
0.958562 0.041438 0.041438 0.958562 
12
1 0 0 0 1 0 0 1 0 0 0 1 
16
1 0 1 0 0 1 0 1 1 0 0 1 1 0 0 1 
16
1 0 1 0 0 1 0 1 1 0 0 1 1 0 0 1 
4
0.958562 0.041438 0.041438 0.958562 
4
0.958562 0.041438 0.041438 0.958562 
16
1 0 1 0 0 1 0 1 1 0 0 1 1 0 0 1 
16
1 0 1 0 0 1 0 1 1 0 0 1 1 0 0 1 
4
0.958562 0.041438 0.041438 0.958562 
4
0.958562 0.041438 0.041438 0.958562 
12
1 0 0 0 1 0 0 1 0 0 0 1 
16
1 0 1 0 0 1 0 1 1 0 0 1 1 0 0 1 
16
1 0 1 0 0 1 0 1 1 0 0 1 1 0 0 1 
4
0.958562 0.041438 0.041438 0.958562 
4
0.958562 0.041438 0.041438 0.958562 
12
1 0 0 0 1 0 0 1 0 0 0 1 
16
1 0 1 0 0 1 0 1 1 0 0 1 1 0 0 1 
16
1 0 1 0 0 1 0 1 1 0 0 1 1 0 0 1 
4
0.958562 0.041438 0.041438 0.958562 
4
0.958562 0.041438 0.041438 0.958562 
2
0.053 0.947 
2
0.053 0.947 
2
0.053 0.947 
2
0.053 0.947 
2
0.053 0.947 
2
0.053 0.947 
2
0.053 0.947 
2
0.053 0.947 
2
0.053 0.947 
2
0.053 0.947 
2
0.053 0.947 
2
0.053 0.947 
2
0.053 0.947 
2
0.053 0.947 
16
1 0 1 0 0 1 0 1 1 0 0 1 1 0 0 1 
16
1 0 1 0 0 1 0 1 1 0 0 1 1 0 0 1 
4
0.972785 0.027215 0.027215 0.972785 
4
0.972785 0.027215 0.027215 0.972785 
16
1 0 1 0 0 1 0 1 1 0 0 1 1 0 0 1 
16
1 0 1 0 0 1 0 1 1 0 0 1 1 0 0 1 
4
0.972785 0.027215 0.027215 0.972785 
4
0.972785 0.027215 0.027215 0.972785 
16
1 0 1 0 0 1 0 1 1 0 0 1 1 0 0 1 
16
1 0 1 0 0 1 0 1 1 0 0 1 1 0 0 1 
4
0.972785 0.027215 0.027215 0.972785 
4
0.972785 0.027215 0.027215 0.972785 
16
1 0 1 0 0 1 0 1 1 0 0 1 1 0 0 1 
16
1 0 1 0 0 1 0 1 1 0 0 1 1 0 0 1 
4
0.972785 0.027215 0.027215 0.972785 
4
0.972785 0.027215 0.027215 0.972785 
12
1 0 0 0 1 0 0 1 0 0 0 1 
16
1 0 1 0 0 1 0 1 1 0 0 1 1 0 0 1 
16
1 0 1 0 0 1 0 1 1 0 0 1 1 0 0 1 
4
0.972785 0.027215 0.027215 0.972785 
4
0.972785 0.027215 0.027215 0.972785 
16
1 0 1 0 0 1 0 1 1 0 0 1 1 0 0 1 
16
1 0 1 0 0 1 0 1 1 0 0 1 1 0 0 1 
4
0.972785 0.027215 0.027215 0.972785 
4
0.972785 0.027215 0.027215 0.972785 
12
1 0 0 0 1 0 0 1 0 0 0 1 
16
1 0 1 0 0 1 0 1 1 0 0 1 1 0 0 1 
16
1 0 1 0 0 1 0 1 1 0 0 1 1 0 0 1 
4
0.972785 0.027215 0.027215 0.972785 
4
0.972785 0.027215 0.027215 0.972785 
12
1 0 0 0 1 0 0 1 0 0 0 1 
16
1 0 1 0 0 1 0 1 1 0 0 1 1 0 0 1 
16
1 0 1 0 0 1 0 1 1 0 0 1 1 0 0 1 
4
0.972785 0.027215 0.027215 0.972785 
4
0.972785 0.027215 0.027215 0.972785 
16
1 0 1 0 0 1 0 1 1 0 0 1 1 0 0 1 
16
1 0 1 0 0 1 0 1 1 0 0 1 1 0 0 1 
4
0.972785 0.027215 0.027215 0.972785 
4
0.972785 0.027215 0.027215 0.972785 
16
1 0 1 0 0 1 0 1 1 0 0 1 1 0 0 1 
16
1 0 1 0 0 1 0 1 1 0 0 1 1 0 0 1 
4
0.972785 0.027215 0.027215 0.972785 
4
0.972785 0.027215 0.027215 0.972785 
12
1 0 0 0 1 0 0 1 0 0 0 1 
16
1 0 1 0 0 1 0 1 1 0 0 1 1 0 0 1 
16
1 0 1 0 0 1 0 1 1 0 0 1 1 0 0 1 
4
0.972785 0.027215 0.027215 0.972785 
4
0.972785 0.027215 0.027215 0.972785 
2
0.476 0.524 
2
0.476 0.524 
2
0.476 0.524 
2
0.476 0.524 
2
0.476 0.524 
2
0.476 0.524 
2
0.476 0.524 
2
0.476 0.524 
2
0.476 0.524 
2
0.476 0.524 
2
0.476 0.524 
2
0.476 0.524 
2
0.476 0.524 
2
0.476 0.524 
16
1 0 1 0 0 1 0 1 1 0 0 1 1 0 0 1 
16
1 0 1 0 0 1 0 1 1 0 0 1 1 0 0 1 
4
0.997975 0.002025 0.002025 0.997975 
4
0.997975 0.002025 0.002025 0.997975 
16
1 0 1 0 0 1 0 1 1 0 0 1 1 0 0 1 
16
1 0 1 0 0 1 0 1 1 0 0 1 1 0 0 1 
4
0.997975 0.002025 0.002025 0.997975 
4
0.997975 0.002025 0.002025 0.997975 
16
1 0 1 0 0 1 0 1 1 0 0 1 1 0 0 1 
16
1 0 1 0 0 1 0 1 1 0 0 1 1 0 0 1 
4
0.997975 0.002025 0.002025 0.997975 
4
0.997975 0.002025 0.002025 0.997975 
16
1 0 1 0 0 1 0 1 1 0 0 1 1 0 0 1 
16
1 0 1 0 0 1 0 1 1 0 0 1 1 0 0 1 
4
0.997975 0.002025 0.002025 0.997975 
4
0.997975 0.002025 0.002025 0.997975 
12
1 0 0 0 1 0 0 1 0 0 0 1 
16
1 0 1 0 0 1 0 1 1 0 0 1 1 0 0 1 
16
1 0 1 0 0 1 0 1 1 0 0 1 1 0 0 1 
4
0.997975 0.002025 0.002025 0.997975 
4
0.997975 0.002025 0.002025 0.997975 
16
1 0 1 0 0 1 0 1 1 0 0 1 1 0 0 1 
16
1 0 1 0 0 1 0 1 1 0 0 1 1 0 0 1 
4
0.997975 0.002025 0.002025 0.997975 
4
0.997975 0.002025 0.002025 0.997975 
12
1 0 0 0 1 0 0 1 0 0 0 1 
16
1 0 1 0 0 1 0 1 1 0 0 1 1 0 0 1 
16
1 0 1 0 0 1 0 1 1 0 0 1 1 0 0 1 
4
0.997975 0.002025 0.002025 0.997975 
4
0.997975 0.002025 0.002025 0.997975 
12
1 0 0 0 1 0 0 1 0 0 0 1 
16
1 0 1 0 0 1 0 1 1 0 0 1 1 0 0 1 
16
1 0 1 0 0 1 0 1 1 0 0 1 1 0 0 1 
4
0.997975 0.002025 0.002025 0.997975 
4
0.997975 0.002025 0.002025 0.997975 
16
1 0 1 0 0 1 0 1 1 0 0 1 1 0 0 1 
16
1 0 1 0 0 1 0 1 1 0 0 1 1 0 0 1 
4
0.997975 0.002025 0.002025 0.997975 
4
0.997975 0.002025 0.002025 0.997975 
16
1 0 1 0 0 1 0 1 1 0 0 1 1 0 0 1 
16
1 0 1 0 0 1 0 1 1 0 0 1 1 0 0 1 
4
0.997975 0.002025 0.002025 0.997975 
4
0.997975 0.002025 0.002025 0.997975 
12
1 0 0 0 1 0 0 1 0 0 0 1 
16
1 0 1 0 0 1 0 1 1 0 0 1 1 0 0 1 
16
1 0 1 0 0 1 0 1 1 0 0 1 1 0 0 1 
4
0.997975 0.002025 0.002025 0.997975 
4
0.997975 0.002025 0.002025 0.997975 
2
0.226 0.774 
2
0.226 0.774 
2
0.226 0.774 
2
0.226 0.774 
2
0.226 0.774 
2
0.226 0.774 
2
0.226 0.774 
2
0.226 0.774 
2
0.226 0.774 
2
0.226 0.774 
2
0.226 0.774 
2
0.226 0.774 
2
0.226 0.774 
2
0.226 0.774 
16
1 0 1 0 0 1 0 1 1 0 0 1 1 0 0 1 
16
1 0 1 0 0 1 0 1 1 0 0 1 1 0 0 1 
4
0.994536 0.005464 0.005464 0.994536 
4
0.994536 0.005464 0.005464 0.994536 
16
1 0 1 0 0 1 0 1 1 0 0 1 1 0 0 1 
16
1 0 1 0 0 1 0 1 1 0 0 1 1 0 0 1 
4
0.994536 0.005464 0.005464 0.994536 
4
0.994536 0.005464 0.005464 0.994536 
16
1 0 1 0 0 1 0 1 1 0 0 1 1 0 0 1 
16
1 0 1 0 0 1 0 1 1 0 0 1 1 0 0 1 
4
0.994536 0.005464 0.005464 0.994536 
4
0.994536 0.005464 0.005464 0.994536 
16
1 0 1 0 0 1 0 1 1 0 0 1 1 0 0 1 
16
1 0 1 0 0 1 0 1 1 0 0 1 1 0 0 1 
4
0.994536 0.005464 0.005464 0.994536 
4
0.994536 0.005464 0.005464 0.994536 
12
1 0 0 0 1 0 0 1 0 0 0 1 
16
1 0 1 0 0 1 0 1 1 0 0 1 1 0 0 1 
16
1 0 1 0 0 1 0 1 1 0 0 1 1 0 0 1 
4
0.994536 0.005464 0.005464 0.994536 
4
0.994536 0.005464 0.005464 0.994536 
16
1 0 1 0 0 1 0 1 1 0 0 1 1 0 0 1 
16
1 0 1 0 0 1 0 1 1 0 0 1 1 0 0 1 
4
0.994536 0.005464 0.005464 0.994536 
4
0.994536 0.005464 0.005464 0.994536 
12
1 0 0 0 1 0 0 1 0 0 0 1 
16
1 0 1 0 0 1 0 1 1 0 0 1 1 0 0 1 
16
1 0 1 0 0 1 0 1 1 0 0 1 1 0 0 1 
4
0.994536 0.005464 0.005464 0.994536 
4
0.994536 0.005464 0.005464 0.994536 
12
1 0 0 0 1 0 0 1 0 0 0 1 
16
1 0 1 0 0 1 0 1 1 0 0 1 1 0 0 1 
16
1 0 1 0 0 1 0 1 1 0 0 1 1 0 0 1 
4
0.994536 0.005464 0.005464 0.994536 
4
0.994536 0.005464 0.005464 0.994536 
16
1 0 1 0 0 1 0 1 1 0 0 1 1 0 0 1 
16
1 0 1 0 0 1 0 1 1 0 0 1 1 0 0 1 
4
0.994536 0.005464 0.005464 0.994536 
4
0.994536 0.005464 0.005464 0.994536 
12
1 0 0 0 1 0 0 1 0 0 0 1 
16
1 0 1 0 0 1 0 1 1 0 0 1 1 0 0 1 
16
1 0 1 0 0 1 0 1 1 0 0 1 1 0 0 1 
4
0.994536 0.005464 0.005464 0.994536 
4
0.994536 0.005464 0.005464 0.994536 
12
1 0 0 0 1 0 0 1 0 0 0 1 
16
1 0 1 0 0 1 0 1 1 0 0 1 1 0 0 1 
16
1 0 1 0 0 1 0 1 1 0 0 1 1 0 0 1 
4
0.994536 0.005464 0.005464 0.994536 
4
0.994536 0.005464 0.005464 0.994536 
